proyfinal/src/viki/013/experimentInOfficeAgust.take6.output/fd9b23b6-7d7b-476f-ac2d-956b431a3f1f.als.dat
{'cnf.clauses': '118081',
 'cnf.totvars': '69608',
 'conflict literals': '126',
 'conflicts': '39',
 'decisions': '14103',
 'memused.mb': '17.30',
 'outcome': 'UNSAT',
 'propagations': '45748',
 'restarts': '1',
 'solver.msecs': 33,
 'task.msecs': 81}
