proyfinal/src/viki/013/experimentInOfficeAgust.take6.output/fd9b23b6-7d7b-476f-ac2d-956b431a3f1f.als.out
Reading from standard input... Use '--help' for help.
============================[ Problem Statistics ]=============================
|                                                                             |
|  Number of variables:         69608                                         |
|  Number of clauses:          118081                                         |
|  Parse time:                   0.03 s                                       |
|                                                                             |
============================[ Search Statistics ]==============================
| Conflicts |          ORIGINAL         |          LEARNT          | Progress |
|           |    Vars  Clauses Literals |    Limit  Clauses Lit/Cl |          |
===============================================================================
===============================================================================
restarts              : 1
conflicts             : 39             (1156 /sec)
decisions             : 14103          (0.00 % random) (418201 /sec)
propagations          : 45748          (1356582 /sec)
conflict literals     : 126            (0.00 % deleted)
Memory used           : 17.30 MB
CPU time              : 0.033723 s

UNSATISFIABLE
